c numero: 80
c nombre: n-60-d-0.3
c densidad: 0.3
p edges 60 511
e 1 5
e 1 6
e 1 7
e 1 8
e 1 16
e 1 17
e 1 21
e 1 24
e 1 25
e 1 27
e 1 31
e 1 32
e 1 33
e 1 41
e 1 48
e 1 50
e 1 53
e 1 54
e 2 3
e 2 4
e 2 11
e 2 14
e 2 27
e 2 29
e 2 32
e 2 35
e 2 36
e 2 40
e 2 46
e 2 50
e 2 52
e 2 53
e 2 57
e 3 7
e 3 11
e 3 13
e 3 17
e 3 23
e 3 26
e 3 29
e 3 30
e 3 34
e 3 40
e 3 45
e 3 49
e 3 54
e 3 57
e 3 58
e 3 60
e 4 6
e 4 7
e 4 8
e 4 14
e 4 15
e 4 22
e 4 23
e 4 25
e 4 26
e 4 29
e 4 33
e 4 40
e 4 53
e 5 8
e 5 9
e 5 10
e 5 16
e 5 17
e 5 18
e 5 19
e 5 26
e 5 30
e 5 31
e 5 34
e 5 38
e 5 46
e 5 57
e 6 8
e 6 9
e 6 11
e 6 13
e 6 14
e 6 18
e 6 19
e 6 22
e 6 24
e 6 28
e 6 30
e 6 33
e 6 41
e 6 58
e 7 8
e 7 11
e 7 14
e 7 18
e 7 21
e 7 22
e 7 28
e 7 34
e 7 36
e 7 38
e 7 47
e 7 49
e 7 55
e 7 56
e 7 58
e 8 10
e 8 14
e 8 16
e 8 18
e 8 20
e 8 25
e 8 27
e 8 32
e 8 33
e 8 37
e 8 43
e 8 49
e 8 50
e 8 51
e 8 55
e 8 56
e 8 58
e 8 60
e 9 11
e 9 13
e 9 17
e 9 24
e 9 28
e 9 29
e 9 30
e 9 37
e 9 39
e 9 42
e 9 45
e 9 47
e 9 48
e 9 59
e 10 16
e 10 18
e 10 19
e 10 28
e 10 30
e 10 37
e 10 40
e 10 42
e 10 47
e 10 50
e 10 52
e 10 54
e 10 57
e 10 58
e 11 12
e 11 15
e 11 16
e 11 21
e 11 25
e 11 26
e 11 27
e 11 30
e 11 35
e 11 40
e 11 43
e 11 47
e 11 49
e 11 53
e 11 54
e 11 56
e 12 14
e 12 19
e 12 28
e 12 31
e 12 33
e 12 34
e 12 35
e 12 36
e 12 47
e 12 49
e 12 50
e 12 51
e 12 53
e 12 58
e 12 59
e 12 60
e 13 20
e 13 28
e 13 31
e 13 33
e 13 36
e 13 41
e 13 44
e 13 46
e 13 57
e 13 58
e 14 15
e 14 18
e 14 24
e 14 25
e 14 26
e 14 28
e 14 29
e 14 31
e 14 42
e 14 44
e 14 46
e 14 49
e 14 53
e 15 21
e 15 25
e 15 28
e 15 31
e 15 33
e 15 37
e 15 39
e 15 45
e 15 53
e 15 54
e 15 56
e 16 17
e 16 19
e 16 21
e 16 24
e 16 27
e 16 28
e 16 29
e 16 32
e 16 35
e 16 55
e 16 56
e 16 57
e 17 18
e 17 19
e 17 22
e 17 26
e 17 27
e 17 30
e 17 31
e 17 32
e 17 35
e 17 40
e 17 42
e 17 51
e 17 54
e 17 55
e 17 57
e 18 21
e 18 24
e 18 27
e 18 34
e 18 35
e 18 36
e 18 46
e 18 49
e 18 52
e 19 21
e 19 32
e 19 35
e 19 36
e 19 39
e 19 43
e 19 44
e 19 45
e 19 55
e 19 58
e 19 59
e 20 21
e 20 25
e 20 26
e 20 30
e 20 32
e 20 38
e 20 40
e 20 44
e 20 46
e 20 49
e 20 51
e 20 52
e 20 55
e 20 58
e 21 22
e 21 23
e 21 24
e 21 39
e 21 42
e 21 43
e 21 47
e 21 50
e 21 54
e 21 56
e 21 58
e 22 25
e 22 29
e 22 34
e 22 37
e 22 41
e 22 44
e 22 45
e 22 50
e 22 57
e 22 60
e 23 28
e 23 30
e 23 37
e 23 38
e 23 40
e 23 42
e 23 43
e 23 45
e 23 49
e 23 50
e 23 57
e 23 60
e 24 25
e 24 28
e 24 29
e 24 41
e 24 45
e 24 46
e 24 52
e 24 54
e 24 55
e 24 56
e 25 27
e 25 28
e 25 32
e 25 33
e 25 34
e 25 39
e 25 42
e 25 43
e 25 44
e 25 45
e 25 46
e 25 52
e 25 53
e 25 59
e 25 60
e 26 30
e 26 31
e 26 39
e 26 41
e 26 43
e 26 49
e 26 51
e 26 55
e 26 58
e 27 28
e 27 33
e 27 35
e 27 36
e 27 37
e 27 38
e 27 39
e 27 41
e 27 44
e 27 45
e 27 47
e 27 57
e 27 60
e 28 34
e 28 37
e 28 38
e 28 44
e 28 55
e 28 58
e 28 59
e 28 60
e 29 30
e 29 37
e 29 39
e 29 48
e 29 49
e 29 50
e 29 51
e 29 54
e 29 58
e 29 59
e 30 34
e 30 37
e 30 40
e 30 41
e 30 42
e 30 43
e 30 44
e 30 45
e 30 49
e 30 50
e 30 58
e 31 33
e 31 36
e 31 44
e 31 50
e 31 53
e 31 54
e 31 56
e 32 42
e 32 49
e 32 52
e 32 58
e 32 60
e 33 34
e 33 41
e 33 43
e 33 47
e 33 48
e 33 49
e 33 51
e 34 35
e 34 39
e 34 41
e 34 45
e 34 47
e 34 49
e 34 54
e 34 56
e 34 57
e 35 38
e 35 39
e 35 42
e 35 45
e 35 46
e 35 48
e 35 50
e 36 40
e 36 41
e 36 42
e 36 45
e 36 49
e 36 50
e 36 51
e 36 56
e 36 57
e 37 41
e 37 46
e 37 52
e 37 53
e 37 54
e 38 49
e 38 50
e 38 53
e 38 57
e 38 58
e 39 40
e 39 44
e 39 45
e 39 47
e 39 49
e 39 56
e 39 59
e 40 43
e 40 44
e 40 45
e 40 47
e 40 57
e 41 44
e 41 45
e 41 53
e 41 56
e 42 44
e 42 50
e 42 51
e 42 52
e 42 60
e 43 44
e 43 50
e 43 54
e 43 58
e 43 59
e 44 47
e 44 52
e 44 53
e 45 48
e 45 52
e 45 55
e 45 56
e 45 59
e 45 60
e 46 47
e 46 48
e 46 51
e 46 57
e 46 59
e 46 60
e 47 51
e 47 53
e 47 54
e 48 49
e 48 54
e 48 57
e 48 58
e 48 59
e 49 58
e 49 59
e 49 60
e 50 52
e 50 56
e 50 58
e 50 59
e 51 52
e 51 56
e 51 57
e 52 53
e 52 55
e 53 54
e 53 58
e 53 60
e 54 55
e 54 56
e 54 57
e 55 59
e 55 60
e 56 60
